(set-info :Origin "This instance was generated by: BanditFuzz-- an RL fuzzer for SMT solvers" )
(set-info :Author "Joe Scott, Fed Mora, Vijay Ganesh" )
(set-info :Contact "Joe Scott, joseph.scott@uwaterloo.ca")
(set-logic QF_BV)
(declare-const bool_0 Bool)
(declare-const bool_1 Bool)
(declare-const bool_2 Bool)
(declare-const bool_3 Bool)
(declare-const bool_4 Bool)
(declare-const bv_0 (_ BitVec 32))
(declare-const bv_1 (_ BitVec 32))
(declare-const bv_2 (_ BitVec 32))
(declare-const bv_3 (_ BitVec 32))
(declare-const bv_4 (_ BitVec 32))
(assert (bvsge (bvor (bvlshr bv_1 #xd10de7fc ) (bvudiv #xa83280a5  bv_4)) (bvudiv (bvnor bv_4 #x90996b3f ) (bvnor bv_4 bv_4))))
(assert (and (not (=> false true)) (or (bvuge #xbb605df9  #x92172b60 ) (bvsle bv_0 bv_0))))
(assert (bvuge (bvnand (bvxor bv_1 #xe498893b ) (bvudiv bv_4 #x3e00a1c4 )) (bvsub (bvsrem #x9a16db83  #x50fc3b5d ) (bvor #x90a09ae0  bv_1))))
(assert (bvslt (bvxor (bvsdiv bv_4 #x7512fd8c ) (bvor bv_3 #xa16ee01e )) (bvsmod (bvashr bv_4 #x3a080c2c ) (bvlshr bv_1 #x4341e1f6 ))))
(assert (bvugt (bvnand (bvshl bv_0 #xd59eb818 ) (bvadd #x9f1b7b41  #x8e8db069 )) (bvnand (bvor #x3e0a0365  bv_0) (bvsmod #xa500f0ed  bv_1))))
(check-sat)
(exit)
